(declare-fun bvlambda_1_ ()Bool         )
(declare-fun bvlambda_2_ () (_ BitVec 6))
(declare-fun bvlambda_11_ ()Bool         )
(declare-fun bvlambda_12_ () (_ BitVec 2))
(declare-fun bvlambda_21_ ()Bool         )
(declare-fun bvlambda_22_ () (_ BitVec 2))
(declare-fun bvlambda_23_ ()Bool         )
(declare-fun bvlambda_24_ () (_ BitVec 4))
(declare-fun bvlambda_25_ ()Bool         )
(declare-fun bvlambda_26_ () (_ BitVec 5))
(declare-fun a108 () (Array (_ BitVec 1) (_ BitVec 4)))
(declare-fun a110 () (Array (_ BitVec 3) (_ BitVec 2)))
(assert
(let (($e1 false    ))
(let (($e22 (_ bv0 6)))
(let (($e24 (_ bv0 4)))
(let (($e26 (_ bv0 9)))
(let (($e28 (_ bv10 13)))
(let (($e35 (_ bv4 4)))
(let (($e47 (_ bv0 13)))
(let (($e155 (store a108 $e1 $e35)))
(let (($e175 false                                  ))
(let (($e199 (concat bvlambda_11_ bvlambda_12_)))
(let (($e200 (select a110 $e199)))
(let (($e262 (concat bvlambda_21_ bvlambda_22_)))
(let (($e263 (concat $e262 bvlambda_23_)))
(let (($e264 (concat $e263 bvlambda_24_)))
(let (($e265 (concat $e264 bvlambda_25_)))
(let (($e266 (concat $e265 bvlambda_26_)))
(let (($e267                            $e266  ))
(let (($e268                           $e267       ))
(let (($e269                      $e268 ))
(let (($e274                                $e269 ))
(let (($e275               $e274                ))
(let (($e287 (concat        $e22  bvlambda_1_)))
(let (($e288 (concat $e287 bvlambda_2_)))
(let (($e289                          $e288       ))
(let (($e290         $e289              ))
(let (($e291      (bvult $e28 $e290)         ))
(let (($e292 (select $e155 (bvnot $e291))))
(let (($e328 (concat $e1 $e200)))
(let (($e329        a110                           ))
(let (($e330 (select $e329 $e328)))
(let (($e332 (concat (bvnot $e24) $e330)))
(let (($e334                    $e332       ))
(let (($e335 (concat $e334 $e292)))
(let (($e336              (bvnot $e335) ))
(let (($e372 ((_ extract 13 1) $e275)))
(let (($e373      (= $e47        $e372 )         ))
(let (($e374        $e373       ))
(let (($e375               $e374                ))
(let (($e391 (concat (bvnot $e26) $e175)))
(let (($e392                    $e391       ))
(let (($e393      (bvult (bvnot $e336) $e392)         ))
(let (($e394        $e393               ))
             (bvand (bvnot $e394) (bvnot $e375))
                                                                                                                                                                                                                                                                                                                                                                                                                                                                                                                                                                                                                                                                                                                                                                                                                                 ))))               ))))                                   ))) ) )))                                   ))))))           ))    ))))))))                                                             ))                       )                   )                                                                )           )      ) ) ) )                    ))
